1 - 0
2 - 0
3 - 0
4 - 0
5 - 0
6 - 0
7 - 0
8 - 0
9 - 0
10 - 0
11 - 0
12 - 0
13 - 0
14 - 0
15 - 0
16 - 0
17 - 0
18 - 0
19 - 0
20 - 0
21 - 0
22 - 0
23 - 0
24 - 0
25 - 0
26 - 0
27 - 0
28 - 0
29 - 0
30 - 0
31 - 0
32 - 0
33 - 0
34 - 0
35 - 0
36 - 0
37 - 0
38 - 0
39 - 0
40 - 0
41 - 0
42 - 0
43 - 0
44 - 0
45 - 0
46 - 0
47 - 0
48 - 0
49 - 0
50 - 0
51 - 0
52 - 0
53 - 0
54 - 0
55 - 0
56 - 0
57 - 0
58 - 0
59 - 0
60 - 0
61 - 0
62 - 0
63 - 0
64 - 0
65 - 0
66 - 0
67 - 0
68 - 0
69 - 0
70 - 0
71 - 0
72 - 0
73 - 0
74 - 0
75 - 0
76 - 0
77 - 0
78 - 0
79 - 0
80 - 0
81 - 0
82 - 0
83 - 0
84 - 0
85 - 0
86 - 0
87 - 0
88 - 0
89 - 0
90 - 0
91 - 0
92 - 0
93 - 0
94 - 0
95 - 0
96 - 0
97 - 0
98 - 0
99 - 0
100 - 0
101 - 0
102 - 0
103 - 0
104 - 0
105 - 0
106 - 0
107 - 0
108 - 0
109 - 0
110 - 0
111 - 0
112 - 3
113 - 5
114 - 1
115 - 5
116 - 11
117 - 17
118 - 17
119 - 22
120 - 38
121 - 38
122 - 39
123 - 53
124 - 57
125 - 57
126 - 57
127 - 41
128 - 36
129 - 30
130 - 42
131 - 36
132 - 37
133 - 30
134 - 30
135 - 38
136 - 42
137 - 40
138 - 33
139 - 31
140 - 45
141 - 51
142 - 43
143 - 51
144 - 46
145 - 57
146 - 54
147 - 54
148 - 57
149 - 48
150 - 74
151 - 78
152 - 53
153 - 88
154 - 61
155 - 88
156 - 75
157 - 95
158 - 89
159 - 81
160 - 103
161 - 100
162 - 116
163 - 96
164 - 116
165 - 122
166 - 151
167 - 131
168 - 127
169 - 149
170 - 135
171 - 163
172 - 175
173 - 172
174 - 165
175 - 181
176 - 209
177 - 165
178 - 215
179 - 213
180 - 238
181 - 256
182 - 247
183 - 271
184 - 297
185 - 304
186 - 345
187 - 326
188 - 350
189 - 382
190 - 402
191 - 426
192 - 448
193 - 464
194 - 508
195 - 509
196 - 561
197 - 563
198 - 641
199 - 712
200 - 731
201 - 761
202 - 810
203 - 883
204 - 947
205 - 1007
206 - 1081
207 - 1101
208 - 1213
209 - 1275
210 - 1437
211 - 1412
212 - 1466
213 - 1564
214 - 1749
215 - 1859
216 - 2036
217 - 2137
218 - 2289
219 - 2401
220 - 2525
221 - 2603
222 - 2757
223 - 2962
224 - 3085
225 - 3206
226 - 3331
227 - 3488
228 - 3466
229 - 3528
230 - 3670
231 - 3821
232 - 3953
233 - 3812
234 - 3906
235 - 3875
236 - 3800
237 - 3595
238 - 3543
239 - 3395
240 - 3274
241 - 3036
242 - 2693
243 - 2485
244 - 2236
245 - 1911
246 - 1444
247 - 1120
248 - 810
249 - 390
250 - 0

0.1 - 12883
0.2 - 12974
0.3 - 12961
0.4 - 13004
0.5 - 12959
0.6 - 12727
0.7 - 12942
0.8 - 12744
0.9 - 13093
1 - 13020
